(set-info :source |printed by MathSAT|)
(declare-fun |!{$(in_main#0)<N>}| () Int)
(declare-fun |!{$(in_main#0)<N>}.next| () Int)
(declare-fun |!{$(in_main#0)<i>}| () Int)
(declare-fun |!{$(in_main#0)<i>}.next| () Int)
(declare-fun |!{$(in_main#0)<j>}| () Int)
(declare-fun |!{$(in_main#0)<j>}.next| () Int)
(declare-fun |!{$(in_main#0)<k>}| () Int)
(declare-fun |!{$(in_main#0)<k>}.next| () Int)
(declare-fun |!{$(in_main#0)<k#1>}| () Int)
(declare-fun |!{$(in_main#0)<k#1>}.next| () Int)
(declare-fun |!{$(in_main#0)<l>}| () Int)
(declare-fun |!{$(in_main#0)<l>}.next| () Int)
(declare-fun |!{$(in_main#0)<x>}| () Int)
(declare-fun |!{$(in_main#0)<x>}.next| () Int)
(declare-fun |!{$(in_main#0)<array.1>}| () (Array Int Int))
(declare-fun |!{$(in_main#0)<array.1>}.next| () (Array Int Int))
(declare-fun |!{$(in_main#0)<main.return>}| () Int)
(declare-fun |!{$(in_main#0)<main.return>}.next| () Int)
(declare-fun |!{$(in_main#0)<$(in___VERIFIER_nondet_int#0)<h#<__VERIFIER_nondet_int.return>>>}| () Int)
(declare-fun |!{$(in_main#0)<$(in___VERIFIER_nondet_int#2)<h#<__VERIFIER_nondet_int.return>>>}| () Int)
(declare-fun !pc () Int)
(declare-fun !pc.next () Int)
(declare-fun |%{$(in_main#0)<i>}#1| () Int)
(declare-fun |%{$(in_main#0)<j>}#1| () Int)
(declare-fun |%{$(in_main#0)<k#1>}#1| () Int)
(declare-fun |%{$(in_main#0)<l>}#1| () Int)
(declare-fun |%{$(in_main#0)<x>}#1| () Int)
(declare-fun |%{$(in_main#0)<array.1>}#1| () (Array Int Int))
(declare-fun |%{$(in_main#0)<main.return>}#1| () Int)
(define-fun .def_40 () Int (! !pc :next !pc.next))
(define-fun .def_43 () Bool (! (= .def_40 2) :init true))
(define-fun .def_288 () Bool (= .def_40 43))
(define-fun .def_258 () Bool (= !pc.next 63))
(define-fun .def_291 () Bool (and .def_258 .def_288))
(define-fun .def_278 () Bool (= |!{$(in_main#0)<i>}.next| 1))
(define-fun .def_8 () Int (! |!{$(in_main#0)<N>}| :next |!{$(in_main#0)<N>}.next|))
(define-fun .def_93 () Bool (= .def_8 |!{$(in_main#0)<N>}.next|))
(define-fun .def_279 () Bool (and .def_93 .def_278))
(define-fun .def_12 () Int (! |!{$(in_main#0)<j>}| :next |!{$(in_main#0)<j>}.next|))
(define-fun .def_96 () Bool (= .def_12 |!{$(in_main#0)<j>}.next|))
(define-fun .def_280 () Bool (and .def_96 .def_279))
(define-fun .def_14 () Int (! |!{$(in_main#0)<k>}| :next |!{$(in_main#0)<k>}.next|))
(define-fun .def_98 () Bool (= .def_14 |!{$(in_main#0)<k>}.next|))
(define-fun .def_281 () Bool (and .def_98 .def_280))
(define-fun .def_16 () Int (! |!{$(in_main#0)<k#1>}| :next |!{$(in_main#0)<k#1>}.next|))
(define-fun .def_100 () Bool (= .def_16 |!{$(in_main#0)<k#1>}.next|))
(define-fun .def_282 () Bool (and .def_100 .def_281))
(define-fun .def_18 () Int (! |!{$(in_main#0)<l>}| :next |!{$(in_main#0)<l>}.next|))
(define-fun .def_118 () Bool (= .def_18 |!{$(in_main#0)<l>}.next|))
(define-fun .def_283 () Bool (and .def_118 .def_282))
(define-fun .def_20 () Int (! |!{$(in_main#0)<x>}| :next |!{$(in_main#0)<x>}.next|))
(define-fun .def_106 () Bool (= .def_20 |!{$(in_main#0)<x>}.next|))
(define-fun .def_284 () Bool (and .def_106 .def_283))
(define-fun .def_22 () (Array Int Int) (! |!{$(in_main#0)<array.1>}| :next |!{$(in_main#0)<array.1>}.next|))
(define-fun .def_108 () Bool (= .def_22 |!{$(in_main#0)<array.1>}.next|))
(define-fun .def_285 () Bool (and .def_108 .def_284))
(define-fun .def_24 () Int (! |!{$(in_main#0)<main.return>}| :next |!{$(in_main#0)<main.return>}.next|))
(define-fun .def_110 () Bool (= .def_24 |!{$(in_main#0)<main.return>}.next|))
(define-fun .def_286 () Bool (and .def_110 .def_285))
(define-fun .def_263 () Bool (<= .def_8 .def_14))
(define-fun .def_287 () Bool (and .def_263 .def_286))
(define-fun .def_292 () Bool (and .def_287 .def_291))
(define-fun .def_83 () Bool (= !pc.next 43))
(define-fun .def_289 () Bool (and .def_83 .def_288))
(define-fun .def_265 () (Array Int Int) (store .def_22 .def_14 |!{$(in_main#0)<$(in___VERIFIER_nondet_int#2)<h#<__VERIFIER_nondet_int.return>>>}|))
(define-fun .def_274 () Bool (= |!{$(in_main#0)<array.1>}.next| .def_265))
(define-fun .def_267 () Int (* (- 1) |!{$(in_main#0)<k>}.next|))
(define-fun .def_268 () Int (+ .def_14 .def_267))
(define-fun .def_269 () Bool (= .def_268 (- 1)))
(define-fun .def_10 () Int (! |!{$(in_main#0)<i>}| :next |!{$(in_main#0)<i>}.next|))
(define-fun .def_94 () Bool (= .def_10 |!{$(in_main#0)<i>}.next|))
(define-fun .def_95 () Bool (and .def_93 .def_94))
(define-fun .def_97 () Bool (and .def_95 .def_96))
(define-fun .def_270 () Bool (and .def_97 .def_269))
(define-fun .def_271 () Bool (and .def_100 .def_270))
(define-fun .def_272 () Bool (and .def_118 .def_271))
(define-fun .def_273 () Bool (and .def_106 .def_272))
(define-fun .def_275 () Bool (and .def_273 .def_274))
(define-fun .def_276 () Bool (and .def_110 .def_275))
(define-fun .def_264 () Bool (not .def_263))
(define-fun .def_277 () Bool (and .def_264 .def_276))
(define-fun .def_290 () Bool (and .def_277 .def_289))
(define-fun .def_293 () Bool (or .def_290 .def_292))
(define-fun .def_255 () Bool (= .def_40 72))
(define-fun .def_259 () Bool (and .def_255 .def_258))
(define-fun .def_225 () Int (+ .def_12 1))
(define-fun .def_229 () (Array Int Int) (store .def_22 .def_225 .def_20))
(define-fun .def_251 () Bool (= |!{$(in_main#0)<array.1>}.next| .def_229))
(define-fun .def_242 () Int (* (- 1) |!{$(in_main#0)<i>}.next|))
(define-fun .def_243 () Int (+ .def_10 .def_242))
(define-fun .def_244 () Bool (= .def_243 (- 1)))
(define-fun .def_245 () Bool (and .def_93 .def_244))
(define-fun .def_246 () Bool (and .def_96 .def_245))
(define-fun .def_247 () Bool (and .def_98 .def_246))
(define-fun .def_248 () Bool (and .def_100 .def_247))
(define-fun .def_249 () Bool (and .def_118 .def_248))
(define-fun .def_250 () Bool (and .def_106 .def_249))
(define-fun .def_252 () Bool (and .def_250 .def_251))
(define-fun .def_253 () Bool (and .def_110 .def_252))
(define-fun .def_221 () Int (select .def_22 .def_12))
(define-fun .def_222 () Bool (<= .def_221 .def_20))
(define-fun .def_223 () Bool (not .def_222))
(define-fun .def_220 () Bool (<= 0 .def_12))
(define-fun .def_224 () Bool (and .def_220 .def_223))
(define-fun .def_228 () Bool (not .def_224))
(define-fun .def_254 () Bool (and .def_228 .def_253))
(define-fun .def_260 () Bool (and .def_254 .def_259))
(define-fun .def_213 () Bool (= !pc.next 72))
(define-fun .def_256 () Bool (and .def_213 .def_255))
(define-fun .def_226 () (Array Int Int) (store .def_22 .def_225 .def_221))
(define-fun .def_238 () Bool (= |!{$(in_main#0)<array.1>}.next| .def_226))
(define-fun .def_191 () Int (* (- 1) |!{$(in_main#0)<j>}.next|))
(define-fun .def_231 () Int (+ .def_12 .def_191))
(define-fun .def_232 () Bool (= .def_231 1))
(define-fun .def_233 () Bool (and .def_95 .def_232))
(define-fun .def_234 () Bool (and .def_98 .def_233))
(define-fun .def_235 () Bool (and .def_100 .def_234))
(define-fun .def_236 () Bool (and .def_118 .def_235))
(define-fun .def_237 () Bool (and .def_106 .def_236))
(define-fun .def_239 () Bool (and .def_237 .def_238))
(define-fun .def_240 () Bool (and .def_110 .def_239))
(define-fun .def_241 () Bool (and .def_224 .def_240))
(define-fun .def_257 () Bool (and .def_241 .def_256))
(define-fun .def_261 () Bool (or .def_257 .def_260))
(define-fun .def_211 () Bool (= .def_40 63))
(define-fun .def_180 () Bool (= !pc.next 92))
(define-fun .def_216 () Bool (and .def_180 .def_211))
(define-fun .def_203 () Bool (= |!{$(in_main#0)<k#1>}.next| 0))
(define-fun .def_99 () Bool (and .def_97 .def_98))
(define-fun .def_204 () Bool (and .def_99 .def_203))
(define-fun .def_205 () Bool (and .def_118 .def_204))
(define-fun .def_206 () Bool (and .def_106 .def_205))
(define-fun .def_207 () Bool (and .def_108 .def_206))
(define-fun .def_208 () Bool (and .def_110 .def_207))
(define-fun .def_187 () Bool (<= .def_8 .def_10))
(define-fun .def_209 () Bool (and .def_187 .def_208))
(define-fun .def_217 () Bool (and .def_209 .def_216))
(define-fun .def_214 () Bool (and .def_211 .def_213))
(define-fun .def_189 () Int (select .def_22 .def_10))
(define-fun .def_198 () Bool (= |!{$(in_main#0)<x>}.next| .def_189))
(define-fun .def_192 () Int (+ .def_10 .def_191))
(define-fun .def_193 () Bool (= .def_192 1))
(define-fun .def_194 () Bool (and .def_95 .def_193))
(define-fun .def_195 () Bool (and .def_98 .def_194))
(define-fun .def_196 () Bool (and .def_100 .def_195))
(define-fun .def_197 () Bool (and .def_118 .def_196))
(define-fun .def_199 () Bool (and .def_197 .def_198))
(define-fun .def_200 () Bool (and .def_108 .def_199))
(define-fun .def_201 () Bool (and .def_110 .def_200))
(define-fun .def_188 () Bool (not .def_187))
(define-fun .def_202 () Bool (and .def_188 .def_201))
(define-fun .def_215 () Bool (and .def_202 .def_214))
(define-fun .def_218 () Bool (or .def_215 .def_217))
(define-fun .def_172 () Bool (= .def_40 100))
(define-fun .def_181 () Bool (and .def_172 .def_180))
(define-fun .def_163 () Int (* (- 1) |!{$(in_main#0)<k#1>}.next|))
(define-fun .def_164 () Int (+ .def_16 .def_163))
(define-fun .def_165 () Bool (= .def_164 (- 1)))
(define-fun .def_166 () Bool (and .def_99 .def_165))
(define-fun .def_167 () Bool (and .def_118 .def_166))
(define-fun .def_168 () Bool (and .def_106 .def_167))
(define-fun .def_169 () Bool (and .def_108 .def_168))
(define-fun .def_170 () Bool (and .def_110 .def_169))
(define-fun .def_134 () Bool (<= .def_8 .def_18))
(define-fun .def_171 () Bool (and .def_134 .def_170))
(define-fun .def_182 () Bool (and .def_171 .def_181))
(define-fun .def_126 () Bool (= !pc.next 100))
(define-fun .def_177 () Bool (and .def_126 .def_172))
(define-fun .def_102 () Int (* (- 1) |!{$(in_main#0)<l>}.next|))
(define-fun .def_155 () Int (+ .def_18 .def_102))
(define-fun .def_156 () Bool (= .def_155 (- 1)))
(define-fun .def_101 () Bool (and .def_99 .def_100))
(define-fun .def_157 () Bool (and .def_101 .def_156))
(define-fun .def_158 () Bool (and .def_106 .def_157))
(define-fun .def_159 () Bool (and .def_108 .def_158))
(define-fun .def_160 () Bool (and .def_110 .def_159))
(define-fun .def_137 () Int (select .def_22 .def_18))
(define-fun .def_136 () Int (select .def_22 .def_16))
(define-fun .def_138 () Bool (<= .def_136 .def_137))
(define-fun .def_139 () Int (ite .def_138 1 0))
(define-fun .def_140 () Bool (= .def_139 0))
(define-fun .def_141 () Bool (not .def_140))
(define-fun .def_161 () Bool (and .def_141 .def_160))
(define-fun .def_135 () Bool (not .def_134))
(define-fun .def_162 () Bool (and .def_135 .def_161))
(define-fun .def_178 () Bool (and .def_162 .def_177))
(define-fun .def_174 () Bool (= !pc.next 120))
(define-fun .def_175 () Bool (and .def_172 .def_174))
(define-fun .def_145 () Bool (and .def_93 .def_140))
(define-fun .def_146 () Bool (and .def_94 .def_145))
(define-fun .def_147 () Bool (and .def_96 .def_146))
(define-fun .def_148 () Bool (and .def_98 .def_147))
(define-fun .def_149 () Bool (and .def_100 .def_148))
(define-fun .def_150 () Bool (and .def_118 .def_149))
(define-fun .def_151 () Bool (and .def_106 .def_150))
(define-fun .def_152 () Bool (and .def_108 .def_151))
(define-fun .def_153 () Bool (and .def_110 .def_152))
(define-fun .def_154 () Bool (and .def_135 .def_153))
(define-fun .def_176 () Bool (and .def_154 .def_175))
(define-fun .def_179 () Bool (or .def_176 .def_178))
(define-fun .def_183 () Bool (or .def_179 .def_182))
(define-fun .def_129 () Bool (= !pc.next 0))
(define-fun .def_124 () Bool (= .def_40 92))
(define-fun .def_130 () Bool (and .def_124 .def_129))
(define-fun .def_88 () Int (* (- 1) .def_16))
(define-fun .def_89 () Int (+ .def_8 .def_88))
(define-fun .def_90 () Bool (<= .def_89 1))
(define-fun .def_113 () Bool (and .def_90 .def_93))
(define-fun .def_114 () Bool (and .def_94 .def_113))
(define-fun .def_115 () Bool (and .def_96 .def_114))
(define-fun .def_116 () Bool (and .def_98 .def_115))
(define-fun .def_117 () Bool (and .def_100 .def_116))
(define-fun .def_119 () Bool (and .def_117 .def_118))
(define-fun .def_120 () Bool (and .def_106 .def_119))
(define-fun .def_121 () Bool (and .def_108 .def_120))
(define-fun .def_122 () Bool (and .def_110 .def_121))
(define-fun .def_131 () Bool (and .def_122 .def_130))
(define-fun .def_127 () Bool (and .def_124 .def_126))
(define-fun .def_103 () Int (+ .def_16 .def_102))
(define-fun .def_104 () Bool (= .def_103 (- 1)))
(define-fun .def_105 () Bool (and .def_101 .def_104))
(define-fun .def_107 () Bool (and .def_105 .def_106))
(define-fun .def_109 () Bool (and .def_107 .def_108))
(define-fun .def_111 () Bool (and .def_109 .def_110))
(define-fun .def_91 () Bool (not .def_90))
(define-fun .def_112 () Bool (and .def_91 .def_111))
(define-fun .def_128 () Bool (and .def_112 .def_127))
(define-fun .def_132 () Bool (or .def_128 .def_131))
(define-fun .def_84 () Bool (and .def_43 .def_83))
(define-fun .def_79 () Bool (= |!{$(in_main#0)<main.return>}.next| |%{$(in_main#0)<main.return>}#1|))
(define-fun .def_77 () Bool (= |!{$(in_main#0)<array.1>}.next| |%{$(in_main#0)<array.1>}#1|))
(define-fun .def_75 () Bool (= |!{$(in_main#0)<x>}.next| |%{$(in_main#0)<x>}#1|))
(define-fun .def_73 () Bool (= |!{$(in_main#0)<l>}.next| |%{$(in_main#0)<l>}#1|))
(define-fun .def_71 () Bool (= |!{$(in_main#0)<k#1>}.next| |%{$(in_main#0)<k#1>}#1|))
(define-fun .def_69 () Bool (= |!{$(in_main#0)<k>}.next| 0))
(define-fun .def_67 () Bool (= |!{$(in_main#0)<j>}.next| |%{$(in_main#0)<j>}#1|))
(define-fun .def_65 () Bool (= |!{$(in_main#0)<i>}.next| |%{$(in_main#0)<i>}#1|))
(define-fun .def_64 () Bool (= |!{$(in_main#0)<N>}.next| |!{$(in_main#0)<$(in___VERIFIER_nondet_int#0)<h#<__VERIFIER_nondet_int.return>>>}|))
(define-fun .def_66 () Bool (and .def_64 .def_65))
(define-fun .def_68 () Bool (and .def_66 .def_67))
(define-fun .def_70 () Bool (and .def_68 .def_69))
(define-fun .def_72 () Bool (and .def_70 .def_71))
(define-fun .def_74 () Bool (and .def_72 .def_73))
(define-fun .def_76 () Bool (and .def_74 .def_75))
(define-fun .def_78 () Bool (and .def_76 .def_77))
(define-fun .def_80 () Bool (and .def_78 .def_79))
(define-fun .def_59 () Bool (<= |!{$(in_main#0)<$(in___VERIFIER_nondet_int#0)<h#<__VERIFIER_nondet_int.return>>>}| 0))
(define-fun .def_60 () Bool (not .def_59))
(define-fun .def_61 () Int (ite .def_60 1 0))
(define-fun .def_62 () Bool (= .def_61 0))
(define-fun .def_63 () Bool (not .def_62))
(define-fun .def_81 () Bool (and .def_63 .def_80))
(define-fun .def_85 () Bool (and .def_81 .def_84))
(define-fun .def_133 () Bool (or .def_85 .def_132))
(define-fun .def_184 () Bool (or .def_133 .def_183))
(define-fun .def_219 () Bool (or .def_184 .def_218))
(define-fun .def_262 () Bool (or .def_219 .def_261))
(define-fun .def_294 () Bool (! (or .def_262 .def_293) :trans true))
(define-fun .def_185 () Bool (= .def_40 120))
(define-fun .def_295 () Bool (! (not .def_185) :invar-property 0 :invar-property-name ||))
(assert true)
